NAME : P = NP
TYPE : TSP
DIMENSION : 24
EDGE_WEIGHT_TYPE : EUC_2D
NODE_COORD_SECTION
0 3 596
1 619 429
2 1 81
3 1 7
4 95 151
5 538 395
6 190 435
7 382 543
8 18 369
9 284 475
10 495 332
11 486 358
12 155 195
13 418 27
14 275 31
15 92 312
16 176 71
17 514 3
18 746 49
19 178 490
20 26 118
21 483 238
22 100 426
23 60 633